This is Ipopt version 3.14.12, running with linear solver MUMPS 5.5.1.

Number of nonzeros in equality constraint Jacobian...:        0
Number of nonzeros in inequality constraint Jacobian.:       25
Number of nonzeros in Lagrangian Hessian.............:        0

Total number of variables............................:        5
                     variables with only lower bounds:        0
                variables with lower and upper bounds:        5
                     variables with only upper bounds:        0
Total number of equality constraints.................:        0
Total number of inequality constraints...............:        5
        inequality constraints with only lower bounds:        0
   inequality constraints with lower and upper bounds:        0
        inequality constraints with only upper bounds:        5

iter    objective    inf_pr   inf_du lg(mu)  ||d||  lg(rg) alpha_du alpha_pr  ls
   0  3.1402608e-02 3.41e-01 7.57e-01   0.0 0.00e+00    -  0.00e+00 0.00e+00   0
   1  2.0540773e-02 0.00e+00 4.13e-01  -1.6 3.06e-01    -  9.60e-01 1.00e+00h  1
   2  2.1055150e-02 0.00e+00 8.15e-02  -2.5 4.63e-02    -  9.53e-01 1.00e+00h  1
   3  1.5767791e-02 0.00e+00 3.12e-03  -2.5 2.59e-01    -  9.95e-01 1.00e+00f  1
   4  4.5452071e-03 0.00e+00 6.24e-03  -3.4 6.94e-01    -  9.91e-01 1.00e+00h  1
   5  1.6877545e-03 0.00e+00 2.03e-03  -3.4 3.28e-01    -  9.79e-01 1.00e+00h  1
   6  3.6671228e-04 0.00e+00 1.29e-03  -4.2 2.48e-01    -  1.00e+00 1.00e+00h  1
   7  1.1166343e-04 0.00e+00 7.05e-04  -5.3 1.04e-01    -  1.00e+00 1.00e+00h  1
   8  3.0106490e-05 0.00e+00 1.26e-04  -6.8 5.89e-02    -  1.00e+00 1.00e+00h  1
   9  7.7147706e-06 0.00e+00 6.61e-05  -7.5 3.12e-02    -  1.00e+00 1.00e+00h  1
iter    objective    inf_pr   inf_du lg(mu)  ||d||  lg(rg) alpha_du alpha_pr  ls
  10  1.9698642e-06 0.00e+00 1.63e-05  -8.1 1.58e-02    -  1.00e+00 1.00e+00h  1
  11  5.0004678e-07 0.00e+00 7.57e-06  -8.7 8.01e-03    -  1.00e+00 1.00e+00h  1
  12  1.2497210e-07 0.00e+00 2.92e-06 -11.0 4.04e-03    -  1.00e+00 1.00e+00h  1
  13  3.1244030e-08 0.00e+00 5.67e-07 -11.0 2.03e-03    -  1.00e+00 1.00e+00h  1
  14  8.2488686e-09 0.00e+00 9.61e-07 -11.0 9.82e-04    -  1.00e+00 1.00e+00h  1
  15  2.0113121e-09 0.00e+00 1.89e-06 -11.0 5.25e-04    -  1.00e+00 1.00e+00h  1
  16  7.5316317e-10 0.00e+00 3.19e-06 -10.1 2.70e-04    -  1.00e+00 1.00e+00h  1
  17  4.5339503e-10 0.00e+00 6.50e-06 -10.4 2.13e-04    -  1.00e+00 2.31e-01h  2
  18  5.9351187e-10 0.00e+00 9.10e-06  -9.6 3.47e-05    -  1.00e+00 1.00e+00h  1
  19  3.6168344e-10 0.00e+00 1.05e-05  -9.9 6.08e-05    -  1.00e+00 1.00e+00h  1
iter    objective    inf_pr   inf_du lg(mu)  ||d||  lg(rg) alpha_du alpha_pr  ls
  20  4.2315330e-10 0.00e+00 2.55e-05  -9.9 3.50e-05    -  1.00e+00 1.00e+00h  1
  21  1.3608553e-09 0.00e+00 1.19e-05 -10.5 1.84e-04    -  5.21e-01 1.00e+00H  1
  22  9.4778546e-10 0.00e+00 1.06e-05 -10.0 6.30e-04    -  1.00e+00 7.69e-02h  2
  23  8.1109555e-10 0.00e+00 1.68e-05 -10.1 1.77e-04    -  6.78e-01 1.63e-01h  2
  24  8.8363432e-10 0.00e+00 1.08e-05 -10.1 2.96e-05    -  1.00e+00 1.00e+00h  1
  25  2.9690485e-10 0.00e+00 1.56e-05 -10.1 1.47e-04    -  7.73e-01 1.00e+00h  1
  26  2.6266505e-10 0.00e+00 1.89e-05 -10.1 2.54e-04    -  1.00e+00 3.02e-02h  4
  27  2.6233955e-10 0.00e+00 8.27e-06 -10.1 8.37e-06    -  1.00e+00 1.00e+00h  1
  28  2.4478789e-10 0.00e+00 1.31e-05 -10.5 5.77e-05    -  1.00e+00 3.22e-01h  2
  29  2.4022140e-10 0.00e+00 4.16e-06 -10.6 4.26e-06    -  1.00e+00 1.00e+00h  1
iter    objective    inf_pr   inf_du lg(mu)  ||d||  lg(rg) alpha_du alpha_pr  ls
  30  2.6715131e-10 0.00e+00 3.51e-06 -10.6 1.84e-05    -  1.00e+00 1.00e+00H  1
  31  2.2109909e-10 0.00e+00 5.97e-06 -10.6 4.59e-05    -  1.00e+00 3.41e-01h  2
  32  2.0916435e-10 0.00e+00 7.22e-06 -10.7 5.60e-06    -  1.00e+00 1.00e+00h  1
  33  2.0906775e-10 0.00e+00 2.30e-06 -10.7 3.45e-05    -  1.00e+00 1.00e+00H  1
  34  1.9762445e-10 0.00e+00 7.20e-06 -11.0 9.05e-06    -  1.00e+00 1.00e+00h  1
  35  2.0462195e-10 0.00e+00 1.11e-05 -11.0 6.19e-06    -  6.92e-01 1.00e+00h  1
  36  2.1147564e-10 0.00e+00 6.01e-06 -11.0 5.93e-06    -  1.00e+00 1.00e+00h  1
  37  2.3781156e-10 0.00e+00 2.71e-06 -11.0 1.17e-05    -  1.00e+00 1.00e+00H  1
  38  2.3777711e-10 0.00e+00 7.02e-06 -11.0 2.25e-05    -  1.00e+00 1.53e-05h 17
  39  2.3995957e-10 0.00e+00 4.83e-06 -11.0 5.28e-06    -  1.00e+00 1.00e+00H  1
iter    objective    inf_pr   inf_du lg(mu)  ||d||  lg(rg) alpha_du alpha_pr  ls
  40  2.3995957e-10 0.00e+00 4.42e-06 -11.0 5.46e-05    -  7.06e-01 2.08e-16h 52
  41  2.3995957e-10 0.00e+00 4.03e-06 -11.0 3.59e-05    -  1.00e+00 2.10e-11h 36
  42  2.4096236e-10 0.00e+00 4.39e-06 -11.0 2.01e-05    -  1.00e+00 1.00e+00H  1
  43  2.4096236e-10 0.00e+00 3.16e-06 -11.0 1.07e-05    -  1.00e+00 1.82e-12h 40
  44  2.3532540e-10 0.00e+00 7.45e-06 -11.0 1.32e-05    -  1.00e+00 1.00e+00H  1
  45  2.3416920e-10 0.00e+00 1.09e-05 -11.0 5.01e-06    -  1.00e+00 1.00e+00H  1
  46  2.3416920e-10 0.00e+00 9.92e-06 -11.0 2.57e-05    -  1.00e+00 3.60e-12h 38
  47  2.3416920e-10 0.00e+00 9.74e-06 -11.0 2.30e-05    -  1.00e+00 3.16e-12h 39
  48  2.3416920e-10 0.00e+00 9.31e-06 -11.0 2.13e-05    -  1.00e+00 8.60e-13h 41
  49  2.3416920e-10 0.00e+00 1.04e-05 -11.0 1.88e-05    -  1.00e+00 4.55e-13h 42
iter    objective    inf_pr   inf_du lg(mu)  ||d||  lg(rg) alpha_du alpha_pr  ls
  50  2.3416920e-10 0.00e+00 1.02e-05 -11.0 1.83e-05    -  1.00e+00 2.84e-14h 46
  51  2.3416920e-10 0.00e+00 1.05e-05 -11.0 1.87e-05    -  1.00e+00 1.42e-14h 47
  52  2.3416920e-10 0.00e+00 1.02e-05 -11.0 1.83e-05    -  1.00e+00 7.11e-15h 48
  53  2.3416920e-10 0.00e+00 1.05e-05 -11.0 1.88e-05    -  1.00e+00 5.55e-17h 55
  54  2.3416920e-10 0.00e+00 1.02e-05 -11.0 1.82e-05    -  1.00e+00 5.55e-17h 55
  55  2.3416920e-10 0.00e+00 1.05e-05 -11.0 1.88e-05    -  1.00e+00 5.55e-17h 55
  56  2.6612869e-10 0.00e+00 4.82e-06 -11.0 1.82e-05    -  9.77e-01 1.00e+00w  1
  57  2.5402350e-10 0.00e+00 6.84e-06 -11.0 7.89e-06    -  1.00e+00 1.00e+00w  1
  58  2.3555564e-10 0.00e+00 4.35e-06 -11.0 7.41e-06    -  4.70e-01 1.00e+00w  1
  59  2.3416920e-10 0.00e+00 1.02e-05 -11.0 2.39e-05    -  9.77e-01 5.55e-17h 54
iter    objective    inf_pr   inf_du lg(mu)  ||d||  lg(rg) alpha_du alpha_pr  ls
  60  2.3416920e-10 0.00e+00 1.05e-05 -11.0 8.97e-05    -  1.00e+00 3.22e-13h 41
  61  2.0980398e-10 0.00e+00 2.66e-06 -11.0 4.74e-05    -  3.84e-01 3.46e-01h  2
  62  1.8909419e-10 0.00e+00 4.88e-06 -11.0 4.30e-05    -  1.00e+00 2.31e-01h  2
  63  1.8385225e-10 0.00e+00 4.36e-06 -11.0 6.87e-06    -  7.77e-01 1.00e+00h  1
  64  1.8270807e-10 0.00e+00 8.86e-06 -11.0 9.97e-06    -  1.00e+00 3.15e-01h  2
  65  1.8259757e-10 0.00e+00 1.50e-05 -11.0 2.76e-05    -  1.00e+00 7.27e-04h 10
  66  1.5379006e-10 0.00e+00 1.08e-05 -11.0 1.85e-05    -  1.00e+00 1.00e+00H  1
  67  1.3573779e-10 0.00e+00 2.08e-05 -11.0 1.31e-05    -  1.00e+00 1.00e+00f  1
  68  1.2799746e-10 0.00e+00 1.38e-05 -11.0 5.30e-05    -  3.39e-01 1.05e-01h  2
  69  1.2803398e-10 0.00e+00 5.38e-06 -11.0 7.67e-06    -  1.00e+00 4.04e-02h  3
iter    objective    inf_pr   inf_du lg(mu)  ||d||  lg(rg) alpha_du alpha_pr  ls
  70  1.2756831e-10 0.00e+00 3.12e-06 -11.0 6.17e-07    -  1.00e+00 1.00e+00h  1
  71  1.2772252e-10 0.00e+00 1.20e-05 -11.0 1.81e-06    -  1.00e+00 1.00e+00h  1
  72  1.2448083e-10 0.00e+00 8.00e-06 -11.0 3.18e-06    -  8.39e-01 1.00e+00h  1
  73  1.2106790e-10 0.00e+00 9.04e-05 -11.0 4.29e-05    -  1.00e+00 3.06e-01h  1
  74  1.2105570e-10 0.00e+00 3.29e-06 -11.0 1.99e-06    -  9.88e-01 1.25e-01f  4
  75  1.2246574e-10 0.00e+00 2.18e-05 -11.0 2.20e-04    -  2.76e-02 6.34e-03h  2
  76  1.2036683e-10 0.00e+00 7.29e-06 -11.0 1.97e-06    -  1.00e+00 1.00e+00h  1
  77  1.1522001e-10 0.00e+00 7.32e-06 -11.0 1.01e-05    -  3.62e-01 1.00e+00h  1
  78  1.1058114e-10 0.00e+00 8.70e-06 -11.0 1.13e-05    -  4.23e-01 1.00e+00H  1
  79  1.0495137e-10 0.00e+00 6.23e-06 -11.0 1.27e-05    -  7.78e-01 1.00e+00h  1
iter    objective    inf_pr   inf_du lg(mu)  ||d||  lg(rg) alpha_du alpha_pr  ls
  80  1.0443224e-10 0.00e+00 5.72e-06 -11.0 6.93e-05    -  4.76e-01 2.71e-02h  3
  81  1.0415770e-10 0.00e+00 4.01e-06 -11.0 1.18e-06    -  1.00e+00 1.00e+00h  1
  82  1.0196659e-10 0.00e+00 6.94e-06 -11.0 2.76e-06    -  1.00e+00 1.00e+00h  1
  83  1.0308859e-10 0.00e+00 7.44e-06 -11.0 2.37e-06    -  1.00e+00 1.00e+00h  1
  84  1.0293826e-10 0.00e+00 7.37e-06 -11.0 1.65e-05    -  4.81e-01 3.18e-03h  8
  85  1.0278110e-10 0.00e+00 9.31e-06 -11.0 8.68e-07    -  1.00e+00 1.00e+00H  1
  86  1.0287166e-10 0.00e+00 1.10e-05 -11.0 2.96e-07    -  1.00e+00 1.00e+00h  1
  87  1.0242527e-10 0.00e+00 1.33e-05 -11.0 3.03e-06    -  5.78e-01 1.00e+00h  1
  88  1.0076555e-10 0.00e+00 2.75e-06 -11.0 1.38e-05    -  9.02e-01 2.82e-01h  2
  89  1.0048956e-10 0.00e+00 1.38e-05 -11.0 7.02e-06    -  7.57e-01 1.32e-01h  3
iter    objective    inf_pr   inf_du lg(mu)  ||d||  lg(rg) alpha_du alpha_pr  ls
  90  1.0065321e-10 0.00e+00 2.07e-05 -11.0 8.04e-07    -  1.00e+00 1.00e+00h  1
  91  1.0129957e-10 0.00e+00 3.90e-06 -11.0 1.00e-05    -  1.00e+00 5.26e-02h  4
  92  1.0062519e-10 0.00e+00 8.77e-06 -11.0 1.23e-06    -  1.00e+00 1.00e+00h  1
  93  9.9293623e-11 0.00e+00 7.07e-06 -11.0 1.59e-06    -  1.00e+00 1.00e+00h  1
  94  9.7536396e-11 0.00e+00 1.50e-05 -11.0 5.47e-06    -  1.00e+00 1.00e+00h  1
  95  9.3805784e-11 0.00e+00 5.77e-06 -11.0 3.08e-05    -  5.56e-01 3.97e-01h  2
  96  9.2414170e-11 0.00e+00 1.13e-05 -11.0 3.19e-05    -  1.00e+00 1.91e-01h  2
  97  9.2063203e-11 0.00e+00 3.63e-06 -11.0 1.54e-05    -  1.00e+00 2.61e-02h  5
  98  9.1833975e-11 0.00e+00 1.04e-05 -11.0 9.32e-06    -  1.00e+00 2.07e-02h  6
  99  9.1261708e-11 0.00e+00 2.36e-05 -11.0 6.75e-07    -  1.00e+00 1.00e+00h  1
iter    objective    inf_pr   inf_du lg(mu)  ||d||  lg(rg) alpha_du alpha_pr  ls
 100  9.0098372e-11 0.00e+00 1.75e-05 -11.0 2.29e-06    -  1.00e+00 1.00e+00H  1
 101  8.9472552e-11 0.00e+00 6.72e-06 -11.0 2.54e-06    -  1.00e+00 1.00e+00H  1
 102  8.9472552e-11 0.00e+00 6.65e-06 -11.0 1.76e-05    -  8.49e-01 1.82e-12h 40
 103  8.9472552e-11 0.00e+00 6.71e-06 -11.0 1.80e-05    -  1.00e+00 1.78e-15h 50
 104  8.9472552e-11 0.00e+00 6.66e-06 -11.0 1.76e-05    -  8.37e-01 1.82e-12h 40
 105  8.9472552e-11 0.00e+00 6.71e-06 -11.0 1.80e-05    -  1.00e+00 4.55e-13h 42
 106  8.9472552e-11 0.00e+00 6.66e-06 -11.0 1.76e-05    -  8.37e-01 4.44e-16h 52
 107  8.9472552e-11 0.00e+00 6.71e-06 -11.0 1.80e-05    -  1.00e+00 2.27e-13h 43
 108  8.9472552e-11 0.00e+00 6.66e-06 -11.0 1.76e-05    -  8.37e-01 5.68e-14h 45
 109  8.9472552e-11 0.00e+00 6.71e-06 -11.0 1.80e-05    -  1.00e+00 5.55e-17h 55
iter    objective    inf_pr   inf_du lg(mu)  ||d||  lg(rg) alpha_du alpha_pr  ls
 110  8.9472552e-11 0.00e+00 6.66e-06 -11.0 1.76e-05    -  8.37e-01 2.78e-17h 56
 111  8.9472552e-11 0.00e+00 6.71e-06 -11.0 1.80e-05    -  1.00e+00 2.78e-17h 56
 112  1.1576310e-10 0.00e+00 8.27e-06 -11.0 1.76e-05    -  8.37e-01 1.00e+00w  1
 113  1.1113679e-10 0.00e+00 1.22e-05 -11.0 8.87e-06    -  8.23e-01 1.00e+00w  1
 114  1.0467985e-10 0.00e+00 1.20e-05 -11.0 7.05e-05    -  4.70e-01 1.35e-01w  1
 115  8.9124700e-11 0.00e+00 1.53e-05 -11.0 2.60e-05    -  8.37e-01 8.37e-01s 21
 116r 1.1077000e-10 0.00e+00 9.99e+02  -8.3 0.00e+00    -  0.00e+00 0.00e+00R  1
 117r 1.1123957e-10 0.00e+00 8.72e-05  -9.0 1.56e-04    -  1.00e+00 9.90e-04f  1
 118r 2.1956468e-10 0.00e+00 2.56e-05  -9.0 4.69e-05    -  1.00e+00 1.00e+00h  1
 119r 1.1447641e-09 0.00e+00 3.82e-06  -9.0 2.06e-04    -  8.51e-01 1.00e+00h  1
iter    objective    inf_pr   inf_du lg(mu)  ||d||  lg(rg) alpha_du alpha_pr  ls
 120r 2.6151373e-08 0.00e+00 1.76e-06  -9.0 1.39e-03    -  5.35e-01 1.00e+00h  1
 121r 1.8124604e-07 0.00e+00 1.00e-06  -9.0 2.72e-03    -  4.14e-01 1.00e+00h  1
 122r 6.6692236e-07 0.00e+00 1.69e-07  -9.0 4.23e-03    -  9.26e-01 1.00e+00h  1
 123r 3.3030470e-06 0.00e+00 2.36e-07  -9.0 1.15e-02    -  6.93e-01 1.00e+00h  1
 124r 2.6240809e-06 0.00e+00 1.24e-10  -9.0 2.63e-03    -  1.00e+00 1.00e+00h  1
 125r 2.6088758e-06 0.00e+00 7.78e-12  -9.0 2.09e-04    -  1.00e+00 1.00e+00h  1
 126r 6.7107197e-07 0.00e+00 1.73e-07 -11.0 8.61e-03    -  1.00e+00 1.00e+00h  1
 127r 8.0001673e-07 0.00e+00 2.14e-08 -10.3 8.07e-04    -  1.00e+00 1.00e+00h  1

Number of Iterations....: 127

                                   (scaled)                 (unscaled)
Objective...............:   5.3276675467902513e-07    5.3276675467902513e-07
Dual infeasibility......:   1.0925669434932025e-04    1.0925669434932025e-04
Constraint violation....:   0.0000000000000000e+00    0.0000000000000000e+00
Variable bound violation:   0.0000000000000000e+00    0.0000000000000000e+00
Complementarity.........:   4.9999999986080232e-11    4.9999999986080232e-11
Overall NLP error.......:   1.0925669434932025e-04    1.0925669434932025e-04


Number of objective function evaluations             = 1479
Number of objective gradient evaluations             = 119
Number of equality constraint evaluations            = 0
Number of inequality constraint evaluations          = 1479
Number of equality constraint Jacobian evaluations   = 0
Number of inequality constraint Jacobian evaluations = 130
Number of Lagrangian Hessian evaluations             = 0
Total seconds in IPOPT                               = 1.366

EXIT: Converged to a point of local infeasibility. Problem may be infeasible.
